12
101110111011
-1
-1
0
-1
-1
2
-1
4
-1
1
-1
-1
000000010000
111111011100
011001001110
011101111111
111111111111
111111011100
111111111111
111111011110
111111111111
111111111111
111111111111
111111111101
111111111101
110101101100
111111111111
011001010101
110101101100
010011000110
111111111111
110101101100
011001010101
110101101100
111111111111
010011000110
011001010101
